
  22    4
  10   10   10   10

   0   0   0   0   0   4 2 3 4 6 
   8  10  10  10  10   3 10 8 7 
   7  10  10  10  10   2 8 5 
   7  10  10  10  10   2 7 5 
   2  10  10  10  10   4 17 11 10 9 
   9  10  10  10  10   1 7 
   5  10  10  10  10   3 17 11 9 
   4  10  10  10  10   1 9 
   1  10  10  10  10   3 16 14 12 
   4  10  10  10  10   3 16 14 12 
   1  10  10  10  10   3 19 16 13 
   8  10  10  10  10   2 19 13 
   9  10  10  10  10   3 21 20 15 
   5  10  10  10  10   1 15 
   9  10  10  10  10   1 18 
   1  10  10  10  10   1 18 
   9  10  10  10  10   1 19 
   7  10  10  10  10   1 22
   7  10  10  10  10   1 22
   1  10  10  10  10   1 22
   9  10  10  10  10   1 22
   0   0   0   0   0   0 
